c Generated map
c Size: 9 * 9, weights in range: 1 to 10, walls: True, with ratio 0.1
c dim 7 of 8
c
p sp 81 117
c graph contains 81 nodes and 117 arcs
c
a 1 10 7
a 10 1 7
a 1 2 1
a 2 1 1
a 2 11 9
a 11 2 9
a 2 3 9
a 3 2 9
a 3 12 8
a 12 3 8
a 3 4 1
a 4 3 1
a 4 13 2
a 13 4 2
a 6 7 1
a 7 6 1
a 7 16 1
a 16 7 1
a 7 8 9
a 8 7 9
a 8 17 4
a 17 8 4
a 8 9 1
a 9 8 1
a 9 18 1
a 18 9 1
a 10 19 2
a 19 10 2
a 10 11 6
a 11 10 6
a 11 20 2
a 20 11 2
a 11 12 3
a 12 11 3
a 12 21 4
a 21 12 4
a 12 13 3
a 13 12 3
a 13 22 4
a 22 13 4
a 13 14 2
a 14 13 2
a 14 23 10
a 23 14 10
a 16 25 6
a 25 16 6
a 16 17 8
a 17 16 8
a 17 26 7
a 26 17 7
a 17 18 2
a 18 17 2
a 18 27 8
a 27 18 8
a 19 28 1
a 28 19 1
a 19 20 5
a 20 19 5
a 20 21 10
a 21 20 10
a 21 22 9
a 22 21 9
a 22 31 5
a 31 22 5
a 22 23 10
a 23 22 10
a 23 32 10
a 32 23 10
a 23 24 4
a 24 23 4
a 24 33 4
a 33 24 4
a 24 25 2
a 25 24 2
a 25 34 2
a 34 25 2
a 25 26 9
a 26 25 9
a 26 35 8
a 35 26 8
a 26 27 8
a 27 26 8
a 27 36 9
a 36 27 9
a 28 37 10
a 37 28 10
a 31 40 3
a 40 31 3
a 31 32 6
a 32 31 6
a 32 41 4
a 41 32 4
a 32 33 6
a 33 32 6
a 33 42 3
a 42 33 3
a 33 34 4
a 34 33 4
a 34 43 10
a 43 34 10
a 34 35 9
a 35 34 9
a 35 44 5
a 44 35 5
a 35 36 1
a 36 35 1
a 36 45 1
a 45 36 1
a 37 46 5
a 46 37 5
a 37 38 3
a 38 37 3
a 38 47 7
a 47 38 7
a 38 39 5
a 39 38 5
a 39 40 2
a 40 39 2
a 40 41 2
a 41 40 2
a 41 42 8
a 42 41 8
a 42 43 7
a 43 42 7
a 43 52 5
a 52 43 5
a 43 44 6
a 44 43 6
a 44 53 7
a 53 44 7
a 44 45 7
a 45 44 7
a 45 54 8
a 54 45 8
a 46 55 10
a 55 46 10
a 46 47 10
a 47 46 10
a 47 56 6
a 56 47 6
a 52 61 7
a 61 52 7
a 52 53 2
a 53 52 2
a 53 62 5
a 62 53 5
a 53 54 7
a 54 53 7
a 54 63 3
a 63 54 3
a 55 64 2
a 64 55 2
a 55 56 3
a 56 55 3
a 56 65 4
a 65 56 4
a 56 57 4
a 57 56 4
a 57 66 7
a 66 57 7
a 57 58 3
a 58 57 3
a 58 67 7
a 67 58 7
a 58 59 7
a 59 58 7
a 59 68 1
a 68 59 1
a 59 60 8
a 60 59 8
a 60 69 10
a 69 60 10
a 60 61 1
a 61 60 1
a 61 70 5
a 70 61 5
a 61 62 8
a 62 61 8
a 62 71 1
a 71 62 1
a 62 63 5
a 63 62 5
a 63 72 1
a 72 63 1
a 64 73 9
a 73 64 9
a 64 65 10
a 65 64 10
a 65 74 8
a 74 65 8
a 65 66 3
a 66 65 3
a 66 75 4
a 75 66 4
a 66 67 1
a 67 66 1
a 67 76 2
a 76 67 2
a 67 68 7
a 68 67 7
a 68 77 9
a 77 68 9
a 68 69 2
a 69 68 2
a 69 78 6
a 78 69 6
a 69 70 4
a 70 69 4
a 70 79 8
a 79 70 8
a 70 71 6
a 71 70 6
a 71 80 6
a 80 71 6
a 71 72 6
a 72 71 6
a 72 81 7
a 81 72 7
a 73 74 9
a 74 73 9
a 74 75 10
a 75 74 10
a 75 76 5
a 76 75 5
a 76 77 4
a 77 76 4
a 77 78 5
a 78 77 5
a 78 79 6
a 79 78 6
a 79 80 2
a 80 79 2
a 80 81 4
a 81 80 4
